50
750 71
686 102
666 33
593 82
594 135
522 63
427 6
370 76
342 150
381 162
418 161
369 211
267 212
227 140
281 64
61 156
18 307
8 346
159 475
255 394
409 425
467 329
557 406
556 438
595 322
681 381
728 263
668 228
822 116
881 112
911 75
903 33
945 21
818 18
852 501
908 634
910 665
952 748
893 822
785 902
614 896
591 936
626 818
557 766
534 663
357 835
324 859
444 957
114 688
27 677

